FourierSAT_Github_AIJ/benchmarks/MAXSAT_benchmarks/1/dimacs-mod/san400_0.7_3.clq.cnf
c File:  san400_0.7_3.clq
c
c SOURCE: Laura Sanchis (laura@cs.colgate.edu)
c
c REFERENCE: "Test Case Construction for the Vertex Cover Problem", 
c DIMACS Workshop on Computational Support for Discrete Mathematics, 
c March, 1992, with additional work in a to be published technical
c report.
c
c 400 vertices 55860 edges 22 max clique
c 400 23940 378 1220 91500 10
p cnf 40 1094
1 3 0
-1 -3 0
1 5 0
-1 -5 0
1 7 0
-1 -7 0
1 8 0
-1 -8 0
1 9 0
-1 -9 0
1 11 0
-1 -11 0
1 12 0
-1 -12 0
1 13 0
-1 -13 0
1 14 0
-1 -14 0
1 15 0
-1 -15 0
1 16 0
-1 -16 0
1 17 0
-1 -17 0
1 18 0
-1 -18 0
1 22 0
-1 -22 0
1 23 0
-1 -23 0
1 25 0
-1 -25 0
1 27 0
-1 -27 0
1 28 0
-1 -28 0
1 29 0
-1 -29 0
1 30 0
-1 -30 0
1 31 0
-1 -31 0
1 32 0
-1 -32 0
1 33 0
-1 -33 0
1 34 0
-1 -34 0
1 35 0
-1 -35 0
1 36 0
-1 -36 0
1 38 0
-1 -38 0
2 3 0
-2 -3 0
2 4 0
-2 -4 0
2 5 0
-2 -5 0
2 8 0
-2 -8 0
2 9 0
-2 -9 0
2 10 0
-2 -10 0
2 13 0
-2 -13 0
2 14 0
-2 -14 0
2 16 0
-2 -16 0
2 18 0
-2 -18 0
2 19 0
-2 -19 0
2 21 0
-2 -21 0
2 22 0
-2 -22 0
2 24 0
-2 -24 0
2 25 0
-2 -25 0
2 27 0
-2 -27 0
2 28 0
-2 -28 0
2 29 0
-2 -29 0
2 30 0
-2 -30 0
2 31 0
-2 -31 0
2 33 0
-2 -33 0
2 34 0
-2 -34 0
2 35 0
-2 -35 0
2 40 0
-2 -40 0
3 4 0
-3 -4 0
3 5 0
-3 -5 0
3 8 0
-3 -8 0
3 9 0
-3 -9 0
3 11 0
-3 -11 0
3 14 0
-3 -14 0
3 16 0
-3 -16 0
3 17 0
-3 -17 0
3 18 0
-3 -18 0
3 19 0
-3 -19 0
3 21 0
-3 -21 0
3 22 0
-3 -22 0
3 23 0
-3 -23 0
3 25 0
-3 -25 0
3 28 0
-3 -28 0
3 29 0
-3 -29 0
3 30 0
-3 -30 0
3 31 0
-3 -31 0
3 33 0
-3 -33 0
3 34 0
-3 -34 0
3 35 0
-3 -35 0
3 36 0
-3 -36 0
3 37 0
-3 -37 0
3 38 0
-3 -38 0
3 39 0
-3 -39 0
3 40 0
-3 -40 0
4 5 0
-4 -5 0
4 7 0
-4 -7 0
4 8 0
-4 -8 0
4 11 0
-4 -11 0
4 12 0
-4 -12 0
4 14 0
-4 -14 0
4 15 0
-4 -15 0
4 18 0
-4 -18 0
4 19 0
-4 -19 0
4 20 0
-4 -20 0
4 21 0
-4 -21 0
4 22 0
-4 -22 0
4 23 0
-4 -23 0
4 24 0
-4 -24 0
4 25 0
-4 -25 0
4 26 0
-4 -26 0
4 27 0
-4 -27 0
4 32 0
-4 -32 0
4 36 0
-4 -36 0
4 37 0
-4 -37 0
4 38 0
-4 -38 0
4 39 0
-4 -39 0
4 40 0
-4 -40 0
5 8 0
-5 -8 0
5 9 0
-5 -9 0
5 10 0
-5 -10 0
5 12 0
-5 -12 0
5 13 0
-5 -13 0
5 14 0
-5 -14 0
5 15 0
-5 -15 0
5 16 0
-5 -16 0
5 18 0
-5 -18 0
5 21 0
-5 -21 0
5 23 0
-5 -23 0
5 24 0
-5 -24 0
5 25 0
-5 -25 0
5 26 0
-5 -26 0
5 28 0
-5 -28 0
5 29 0
-5 -29 0
5 30 0
-5 -30 0
5 31 0
-5 -31 0
5 33 0
-5 -33 0
5 34 0
-5 -34 0
5 35 0
-5 -35 0
5 36 0
-5 -36 0
5 37 0
-5 -37 0
5 40 0
-5 -40 0
6 7 0
-6 -7 0
6 8 0
-6 -8 0
6 11 0
-6 -11 0
6 12 0
-6 -12 0
6 15 0
-6 -15 0
6 16 0
-6 -16 0
6 18 0
-6 -18 0
6 19 0
-6 -19 0
6 20 0
-6 -20 0
6 21 0
-6 -21 0
6 23 0
-6 -23 0
6 24 0
-6 -24 0
6 25 0
-6 -25 0
6 26 0
-6 -26 0
6 27 0
-6 -27 0
6 28 0
-6 -28 0
6 32 0
-6 -32 0
6 33 0
-6 -33 0
6 36 0
-6 -36 0
6 37 0
-6 -37 0
6 38 0
-6 -38 0
6 39 0
-6 -39 0
6 40 0
-6 -40 0
7 8 0
-7 -8 0
7 9 0
-7 -9 0
7 10 0
-7 -10 0
7 11 0
-7 -11 0
7 13 0
-7 -13 0
7 15 0
-7 -15 0
7 16 0
-7 -16 0
7 17 0
-7 -17 0
7 18 0
-7 -18 0
7 20 0
-7 -20 0
7 21 0
-7 -21 0
7 23 0
-7 -23 0
7 24 0
-7 -24 0
7 26 0
-7 -26 0
7 27 0
-7 -27 0
7 30 0
-7 -30 0
7 32 0
-7 -32 0
7 33 0
-7 -33 0
7 34 0
-7 -34 0
7 36 0
-7 -36 0
7 37 0
-7 -37 0
7 38 0
-7 -38 0
7 40 0
-7 -40 0
8 9 0
-8 -9 0
8 10 0
-8 -10 0
8 11 0
-8 -11 0
8 12 0
-8 -12 0
8 13 0
-8 -13 0
8 15 0
-8 -15 0
8 17 0
-8 -17 0
8 18 0
-8 -18 0
8 19 0
-8 -19 0
8 20 0
-8 -20 0
8 21 0
-8 -21 0
8 22 0
-8 -22 0
8 24 0
-8 -24 0
8 25 0
-8 -25 0
8 26 0
-8 -26 0
8 27 0
-8 -27 0
8 28 0
-8 -28 0
8 29 0
-8 -29 0
8 30 0
-8 -30 0
8 31 0
-8 -31 0
8 32 0
-8 -32 0
8 33 0
-8 -33 0
8 34 0
-8 -34 0
8 35 0
-8 -35 0
8 38 0
-8 -38 0
8 39 0
-8 -39 0
8 40 0
-8 -40 0
9 10 0
-9 -10 0
9 13 0
-9 -13 0
9 14 0
-9 -14 0
9 15 0
-9 -15 0
9 16 0
-9 -16 0
9 17 0
-9 -17 0
9 18 0
-9 -18 0
9 21 0
-9 -21 0
9 22 0
-9 -22 0
9 23 0
-9 -23 0
9 25 0
-9 -25 0
9 26 0
-9 -26 0
9 28 0
-9 -28 0
9 29 0
-9 -29 0
9 30 0
-9 -30 0
9 31 0
-9 -31 0
9 32 0
-9 -32 0
9 33 0
-9 -33 0
9 36 0
-9 -36 0
9 38 0
-9 -38 0
9 40 0
-9 -40 0
10 11 0
-10 -11 0
10 12 0
-10 -12 0
10 14 0
-10 -14 0
10 15 0
-10 -15 0
10 16 0
-10 -16 0
10 18 0
-10 -18 0
10 19 0
-10 -19 0
10 20 0
-10 -20 0
10 21 0
-10 -21 0
10 22 0
-10 -22 0
10 23 0
-10 -23 0
10 24 0
-10 -24 0
10 26 0
-10 -26 0
10 27 0
-10 -27 0
10 28 0
-10 -28 0
10 29 0
-10 -29 0
10 30 0
-10 -30 0
10 32 0
-10 -32 0
10 36 0
-10 -36 0
10 37 0
-10 -37 0
10 38 0
-10 -38 0
10 39 0
-10 -39 0
10 40 0
-10 -40 0
11 12 0
-11 -12 0
11 13 0
-11 -13 0
11 15 0
-11 -15 0
11 16 0
-11 -16 0
11 17 0
-11 -17 0
11 19 0
-11 -19 0
11 20 0
-11 -20 0
11 21 0
-11 -21 0
11 22 0
-11 -22 0
11 23 0
-11 -23 0
11 24 0
-11 -24 0
11 26 0
-11 -26 0
11 27 0
-11 -27 0
11 29 0
-11 -29 0
11 30 0
-11 -30 0
11 31 0
-11 -31 0
11 32 0
-11 -32 0
11 33 0
-11 -33 0
11 35 0
-11 -35 0
11 37 0
-11 -37 0
11 39 0
-11 -39 0
11 40 0
-11 -40 0
12 13 0
-12 -13 0
12 14 0
-12 -14 0
12 15 0
-12 -15 0
12 17 0
-12 -17 0
12 20 0
-12 -20 0
12 21 0
-12 -21 0
12 22 0
-12 -22 0
12 23 0
-12 -23 0
12 24 0
-12 -24 0
12 25 0
-12 -25 0
12 26 0
-12 -26 0
12 27 0
-12 -27 0
12 30 0
-12 -30 0
12 32 0
-12 -32 0
12 33 0
-12 -33 0
12 36 0
-12 -36 0
12 37 0
-12 -37 0
12 38 0
-12 -38 0
12 40 0
-12 -40 0
13 14 0
-13 -14 0
13 15 0
-13 -15 0
13 16 0
-13 -16 0
13 18 0
-13 -18 0
13 19 0
-13 -19 0
13 21 0
-13 -21 0
13 22 0
-13 -22 0
13 23 0
-13 -23 0
13 24 0
-13 -24 0
13 25 0
-13 -25 0
13 27 0
-13 -27 0
13 28 0
-13 -28 0
13 29 0
-13 -29 0
13 30 0
-13 -30 0
13 31 0
-13 -31 0
13 33 0
-13 -33 0
13 34 0
-13 -34 0
13 35 0
-13 -35 0
13 37 0
-13 -37 0
14 17 0
-14 -17 0
14 18 0
-14 -18 0
14 19 0
-14 -19 0
14 20 0
-14 -20 0
14 21 0
-14 -21 0
14 22 0
-14 -22 0
14 23 0
-14 -23 0
14 25 0
-14 -25 0
14 26 0
-14 -26 0
14 28 0
-14 -28 0
14 29 0
-14 -29 0
14 30 0
-14 -30 0
14 31 0
-14 -31 0
14 32 0
-14 -32 0
14 33 0
-14 -33 0
14 34 0
-14 -34 0
14 35 0
-14 -35 0
14 37 0
-14 -37 0
14 38 0
-14 -38 0
15 17 0
-15 -17 0
15 19 0
-15 -19 0
15 21 0
-15 -21 0
15 23 0
-15 -23 0
15 26 0
-15 -26 0
15 27 0
-15 -27 0
15 28 0
-15 -28 0
15 32 0
-15 -32 0
15 34 0
-15 -34 0
15 36 0
-15 -36 0
15 37 0
-15 -37 0
15 38 0
-15 -38 0
15 39 0
-15 -39 0
15 40 0
-15 -40 0
16 18 0
-16 -18 0
16 19 0
-16 -19 0
16 21 0
-16 -21 0
16 22 0
-16 -22 0
16 23 0
-16 -23 0
16 25 0
-16 -25 0
16 26 0
-16 -26 0
16 27 0
-16 -27 0
16 28 0
-16 -28 0
16 29 0
-16 -29 0
16 30 0
-16 -30 0
16 31 0
-16 -31 0
16 32 0
-16 -32 0
16 33 0
-16 -33 0
16 34 0
-16 -34 0
16 35 0
-16 -35 0
16 36 0
-16 -36 0
16 37 0
-16 -37 0
16 38 0
-16 -38 0
17 19 0
-17 -19 0
17 20 0
-17 -20 0
17 21 0
-17 -21 0
17 23 0
-17 -23 0
17 24 0
-17 -24 0
17 26 0
-17 -26 0
17 27 0
-17 -27 0
17 28 0
-17 -28 0
17 29 0
-17 -29 0
17 32 0
-17 -32 0
17 33 0
-17 -33 0
17 34 0
-17 -34 0
17 36 0
-17 -36 0
17 37 0
-17 -37 0
17 38 0
-17 -38 0
17 39 0
-17 -39 0
17 40 0
-17 -40 0
18 20 0
-18 -20 0
18 21 0
-18 -21 0
18 22 0
-18 -22 0
18 25 0
-18 -25 0
18 27 0
-18 -27 0
18 29 0
-18 -29 0
18 31 0
-18 -31 0
18 33 0
-18 -33 0
18 34 0
-18 -34 0
18 35 0
-18 -35 0
18 37 0
-18 -37 0
18 40 0
-18 -40 0
19 20 0
-19 -20 0
19 21 0
-19 -21 0
19 23 0
-19 -23 0
19 24 0
-19 -24 0
19 25 0
-19 -25 0
19 26 0
-19 -26 0
19 27 0
-19 -27 0
19 30 0
-19 -30 0
19 31 0
-19 -31 0
19 32 0
-19 -32 0
19 34 0
-19 -34 0
19 36 0
-19 -36 0
19 37 0
-19 -37 0
19 38 0
-19 -38 0
19 40 0
-19 -40 0
20 21 0
-20 -21 0
20 23 0
-20 -23 0
20 26 0
-20 -26 0
20 27 0
-20 -27 0
20 29 0
-20 -29 0
20 32 0
-20 -32 0
20 33 0
-20 -33 0
20 36 0
-20 -36 0
20 37 0
-20 -37 0
20 38 0
-20 -38 0
20 39 0
-20 -39 0
20 40 0
-20 -40 0
21 23 0
-21 -23 0
21 24 0
-21 -24 0
21 25 0
-21 -25 0
21 26 0
-21 -26 0
21 27 0
-21 -27 0
21 30 0
-21 -30 0
21 31 0
-21 -31 0
21 32 0
-21 -32 0
21 33 0
-21 -33 0
21 34 0
-21 -34 0
21 36 0
-21 -36 0
21 37 0
-21 -37 0
21 38 0
-21 -38 0
21 39 0
-21 -39 0
21 40 0
-21 -40 0
22 23 0
-22 -23 0
22 24 0
-22 -24 0
22 25 0
-22 -25 0
22 26 0
-22 -26 0
22 28 0
-22 -28 0
22 29 0
-22 -29 0
22 30 0
-22 -30 0
22 31 0
-22 -31 0
22 33 0
-22 -33 0
22 34 0
-22 -34 0
22 35 0
-22 -35 0
22 39 0
-22 -39 0
22 40 0
-22 -40 0
23 24 0
-23 -24 0
23 27 0
-23 -27 0
23 28 0
-23 -28 0
23 32 0
-23 -32 0
23 35 0
-23 -35 0
23 36 0
-23 -36 0
23 37 0
-23 -37 0
23 38 0
-23 -38 0
23 39 0
-23 -39 0
23 40 0
-23 -40 0
24 25 0
-24 -25 0
24 26 0
-24 -26 0
24 27 0
-24 -27 0
24 28 0
-24 -28 0
24 32 0
-24 -32 0
24 33 0
-24 -33 0
24 34 0
-24 -34 0
24 35 0
-24 -35 0
24 36 0
-24 -36 0
24 37 0
-24 -37 0
24 38 0
-24 -38 0
24 39 0
-24 -39 0
24 40 0
-24 -40 0
25 26 0
-25 -26 0
25 28 0
-25 -28 0
25 30 0
-25 -30 0
25 31 0
-25 -31 0
25 33 0
-25 -33 0
25 34 0
-25 -34 0
25 35 0
-25 -35 0
25 36 0
-25 -36 0
25 39 0
-25 -39 0
25 40 0
-25 -40 0
26 27 0
-26 -27 0
26 28 0
-26 -28 0
26 29 0
-26 -29 0
26 30 0
-26 -30 0
26 31 0
-26 -31 0
26 32 0
-26 -32 0
26 33 0
-26 -33 0
26 34 0
-26 -34 0
26 36 0
-26 -36 0
26 37 0
-26 -37 0
26 38 0
-26 -38 0
26 39 0
-26 -39 0
26 40 0
-26 -40 0
27 35 0
-27 -35 0
27 36 0
-27 -36 0
27 37 0
-27 -37 0
27 38 0
-27 -38 0
27 39 0
-27 -39 0
27 40 0
-27 -40 0
28 29 0
-28 -29 0
28 31 0
-28 -31 0
28 32 0
-28 -32 0
28 33 0
-28 -33 0
28 34 0
-28 -34 0
28 35 0
-28 -35 0
28 37 0
-28 -37 0
28 38 0
-28 -38 0
29 30 0
-29 -30 0
29 31 0
-29 -31 0
29 32 0
-29 -32 0
29 33 0
-29 -33 0
29 34 0
-29 -34 0
29 35 0
-29 -35 0
29 38 0
-29 -38 0
29 39 0
-29 -39 0
30 31 0
-30 -31 0
30 33 0
-30 -33 0
30 34 0
-30 -34 0
30 35 0
-30 -35 0
30 36 0
-30 -36 0
30 37 0
-30 -37 0
30 38 0
-30 -38 0
31 32 0
-31 -32 0
31 34 0
-31 -34 0
31 35 0
-31 -35 0
31 36 0
-31 -36 0
31 38 0
-31 -38 0
31 40 0
-31 -40 0
32 34 0
-32 -34 0
32 35 0
-32 -35 0
32 36 0
-32 -36 0
32 37 0
-32 -37 0
32 38 0
-32 -38 0
32 39 0
-32 -39 0
32 40 0
-32 -40 0
33 34 0
-33 -34 0
33 35 0
-33 -35 0
33 37 0
-33 -37 0
33 38 0
-33 -38 0
33 39 0
-33 -39 0
33 40 0
-33 -40 0
34 36 0
-34 -36 0
34 37 0
-34 -37 0
34 38 0
-34 -38 0
34 39 0
-34 -39 0
34 40 0
-34 -40 0
35 38 0
-35 -38 0
35 39 0
-35 -39 0
35 40 0
-35 -40 0
36 37 0
-36 -37 0
36 39 0
-36 -39 0
36 40 0
-36 -40 0
37 38 0
-37 -38 0
37 39 0
-37 -39 0
38 39 0
-38 -39 0
38 40 0
-38 -40 0
39 40 0
-39 -40 0
