FourierSAT_Github_AIJ/res/fs_1core/san400_0.7_3.clq.cnf.txt
o 238
o 237
o 233
